2	25
164	312	854	560	459	368	380	790	551	809	593	471	498	549	784	51	681	82	452	854	603	90	292	305	131	
7	545	384	313	62	658	731	631	361	247	378	56	359	350	249	571	998	604	759	336	949	709	142	976	751	
4548	4548	
